************************************************************************
file with basedata            : mm37_.bas
initial value random generator: 949183990
************************************************************************
projects                      :  1
jobs (incl. supersource/sink ):  12
horizon                       :  62
RESOURCES
  - renewable                 :  2   R
  - nonrenewable              :  2   N
  - doubly constrained        :  0   D
************************************************************************
PROJECT INFORMATION:
pronr.  #jobs rel.date duedate tardcost  MPM-Time
    1     10      0       17        5       17
************************************************************************
PRECEDENCE RELATIONS:
jobnr.    #modes  #successors   successors
   1        1          3           2   3   4
   2        3          2           9  10
   3        3          3           5   6   7
   4        3          1           7
   5        3          2          10  11
   6        3          1           9
   7        3          2           8  10
   8        3          1          11
   9        3          1          12
  10        3          1          12
  11        3          1          12
  12        1          0        
************************************************************************
REQUESTS/DURATIONS:
jobnr. mode duration  R 1  R 2  N 1  N 2
------------------------------------------------------------------------
  1      1     0       0    0    0    0
  2      1     4       9    8    7    6
         2     7       7    6    6    6
         3     9       4    5    2    4
  3      1     6       6   10    9    3
         2     8       5    7    7    3
         3     9       2    2    6    2
  4      1     1       6    6    4    9
         2     2       5    6    4    7
         3     3       3    5    4    6
  5      1     1       7    8    7    8
         2     4       6    5    7    7
         3     8       6    3    7    3
  6      1     4       5    8    8    4
         2     6       3    8    5    4
         3     6       3    7    6    4
  7      1     2       1    4    3    7
         2     4       1    4    2    6
         3     8       1    3    1    6
  8      1     5       2    4    6    7
         2     6       1    4    5    6
         3     8       1    4    4    4
  9      1     1       9    5    4    5
         2     2       8    4    4    4
         3     5       6    3    4    4
 10      1     1       3    6    3    7
         2     2       2    5    1    4
         3     2       2    3    3    5
 11      1     4       6    3    7    7
         2     4       7    4    3    7
         3     4       8    3    5    6
 12      1     0       0    0    0    0
************************************************************************
RESOURCEAVAILABILITIES:
  R 1  R 2  N 1  N 2
    9   10   41   47
************************************************************************
MAXIMAL LAGS:
from  to  type  delay
    1   12   ES      0
    1    2   ES      0
    2   12   ES      0
    1    3   ES      0
    3   12   ES      0
    1    4   ES      0
    4   12   ES      0
    1    5   ES      0
    5   12   ES      0
    1    6   ES      0
    6   12   ES      0
    1    7   ES      0
    7   12   ES      0
    1    8   ES      0
    8   12   ES      0
    1    9   ES      0
    9   12   ES      0
    1   10   ES      0
   10   12   ES      0
    1   11   ES      0
   11   12   ES      0
    1   12   ES      0
    2    9   SS     -3
    2    9   SE    -10
    2    9   ES     -7
    2    9   EE     -9
    2   10   SS      9
    2   10   SE      5
    2   10   ES     -7
    2   10   EE    -11
    3    5   SS     10
    3    5   SE      7
    3    5   ES      3
    3    5   EE    -12
    3    6   SS     -7
    3    6   SE     -6
    3    6   ES    -10
    3    6   EE      0
    3    7   SS     -3
    3    7   SE     -6
    3    7   ES     -5
    3    7   EE     -3
    4    7   SS      9
    4    7   SE      4
    4    7   ES    -10
    4    7   EE      2
    5   10   SS    -11
    5   10   SE     -1
    5   10   ES      4
    5   10   EE    -12
    5   11   SS     -7
    5   11   SE     -2
    5   11   ES      1
    5   11   EE      0
    6    9   SS     -7
    6    9   SE     -9
    6    9   ES     -8
    6    9   EE      5
    7    8   SS      1
    7    8   SE      3
    7    8   ES     11
    7    8   EE    -10
    7   10   SS      0
    7   10   SE     -6
    7   10   ES     -8
    7   10   EE     -6
    8   11   SS     -3
    8   11   SE      1
    8   11   ES     10
    8   11   EE      9
************************************************************************
